words_hard_train/1148.qaiger
aag 125 10 0 1 115
2
4
8
10
32
56
106
142
178
210
251
6 2 4
12 9 10
14 7 13
16 8 11
18 14 17
20 3 5
22 18 21
24 4 11
26 13 25
28 20 17
30 26 29
34 25 32
36 24 33
38 35 37
40 39 9
42 38 8
44 41 43
46 31 45
48 30 44
50 47 49
52 22 51
54 49 43
58 37 56
60 36 57
62 59 61
64 63 9
66 62 8
68 65 67
70 54 69
72 55 68
74 71 73
76 53 74
78 52 75
80 77 79
82 81 57
84 23 50
86 85 53
88 15 17
90 88 32
92 87 91
94 89 33
96 93 95
98 83 96
100 80 56
102 99 101
104 73 67
108 61 106
110 60 107
112 109 111
114 113 9
116 112 8
118 115 117
120 104 119
122 105 118
124 121 123
126 79 124
128 78 125
130 127 129
132 130 106
134 102 133
136 131 107
138 135 137
140 123 117
144 111 142
146 110 143
148 145 147
150 149 9
152 148 8
154 151 153
156 140 155
158 141 154
160 157 159
162 129 160
164 128 161
166 163 165
168 166 142
170 139 169
172 167 143
174 171 173
176 159 153
180 147 178
182 146 179
184 181 183
186 185 9
188 184 8
190 187 189
192 176 191
194 177 190
196 193 195
198 164 197
200 165 196
202 199 201
204 203 179
206 174 205
208 206 198
212 8 210
214 9 211
216 213 215
218 216 183
220 217 182
222 219 221
224 195 189
226 223 225
228 222 224
230 227 229
232 231 211
234 208 232
236 230 210
238 236 209
240 235 239
242 199 179
244 243 201
246 245 233
248 246 207
250 240 249
i0 1 x2[6]
i1 2 y2[0]
i2 1 x2[7]
i3 2 y2[1]
i4 2 y2[2]
i5 2 y2[3]
i6 2 y2[4]
i7 2 y2[5]
i8 2 y2[6]
i9 2 y2[7]
o0 bv[0]
c
simplified
  <
    2 y2
    subtract
      >> 6
        1 x2
      xor
        1
        2 y2
