words_hard_train/1148.qaiger.qdimacs
p cnf 125 346
a 1 4 0
e 2 3 5 6 7 8 9 10 11 12 13 14 15 16 17 18 19 20 21 22 23 24 25 26 27 28 29 30 31 32 33 34 35 36 37 38 39 40 41 42 43 44 45 46 47 48 49 50 51 52 53 54 55 56 57 58 59 60 61 62 63 64 65 66 67 68 69 70 71 72 73 74 75 76 77 78 79 80 81 82 83 84 85 86 87 88 89 90 91 92 93 94 95 96 97 98 99 100 101 102 103 104 105 106 107 108 109 110 111 112 113 114 115 116 117 118 119 120 121 122 123 124 125 0
-1 -2 3 0
1 -3 0
2 -3 0
4 -5 6 0
-4 -6 0
5 -6 0
3 6 7 0
-3 -7 0
-6 -7 0
-4 5 8 0
4 -8 0
-5 -8 0
-7 8 9 0
7 -9 0
-8 -9 0
1 2 10 0
-1 -10 0
-2 -10 0
-9 10 11 0
9 -11 0
-10 -11 0
-2 5 12 0
2 -12 0
-5 -12 0
6 12 13 0
-6 -13 0
-12 -13 0
-10 8 14 0
10 -14 0
-8 -14 0
-13 14 15 0
13 -15 0
-14 -15 0
12 -16 17 0
-12 -17 0
16 -17 0
-12 16 18 0
12 -18 0
-16 -18 0
17 18 19 0
-17 -19 0
-18 -19 0
19 4 20 0
-19 -20 0
-4 -20 0
-19 -4 21 0
19 -21 0
4 -21 0
20 21 22 0
-20 -22 0
-21 -22 0
15 22 23 0
-15 -23 0
-22 -23 0
-15 -22 24 0
15 -24 0
22 -24 0
23 24 25 0
-23 -25 0
-24 -25 0
-11 25 26 0
11 -26 0
-25 -26 0
24 21 27 0
-24 -27 0
-21 -27 0
18 -28 29 0
-18 -29 0
28 -29 0
-18 28 30 0
18 -30 0
-28 -30 0
29 30 31 0
-29 -31 0
-30 -31 0
31 4 32 0
-31 -32 0
-4 -32 0
-31 -4 33 0
31 -33 0
4 -33 0
32 33 34 0
-32 -34 0
-33 -34 0
-27 34 35 0
27 -35 0
-34 -35 0
27 -34 36 0
-27 -36 0
34 -36 0
35 36 37 0
-35 -37 0
-36 -37 0
26 -37 38 0
-26 -38 0
37 -38 0
-26 37 39 0
26 -39 0
-37 -39 0
38 39 40 0
-38 -40 0
-39 -40 0
40 28 41 0
-40 -41 0
-28 -41 0
11 -25 42 0
-11 -42 0
25 -42 0
42 26 43 0
-42 -43 0
-26 -43 0
7 8 44 0
-7 -44 0
-8 -44 0
-44 -16 45 0
44 -45 0
16 -45 0
43 45 46 0
-43 -46 0
-45 -46 0
44 16 47 0
-44 -47 0
-16 -47 0
46 47 48 0
-46 -48 0
-47 -48 0
41 -48 49 0
-41 -49 0
48 -49 0
-40 -28 50 0
40 -50 0
28 -50 0
49 50 51 0
-49 -51 0
-50 -51 0
36 33 52 0
-36 -52 0
-33 -52 0
30 -53 54 0
-30 -54 0
53 -54 0
-30 53 55 0
30 -55 0
-53 -55 0
54 55 56 0
-54 -56 0
-55 -56 0
56 4 57 0
-56 -57 0
-4 -57 0
-56 -4 58 0
56 -58 0
4 -58 0
57 58 59 0
-57 -59 0
-58 -59 0
-52 59 60 0
52 -60 0
-59 -60 0
52 -59 61 0
-52 -61 0
59 -61 0
60 61 62 0
-60 -62 0
-61 -62 0
39 -62 63 0
-39 -63 0
62 -63 0
-39 62 64 0
39 -64 0
-62 -64 0
63 64 65 0
-63 -65 0
-64 -65 0
-65 -53 66 0
65 -66 0
53 -66 0
-51 66 67 0
51 -67 0
-66 -67 0
65 53 68 0
-65 -68 0
-53 -68 0
67 68 69 0
-67 -69 0
-68 -69 0
61 58 70 0
-61 -70 0
-58 -70 0
55 -71 72 0
-55 -72 0
71 -72 0
-55 71 73 0
55 -73 0
-71 -73 0
72 73 74 0
-72 -74 0
-73 -74 0
74 4 75 0
-74 -75 0
-4 -75 0
-74 -4 76 0
74 -76 0
4 -76 0
75 76 77 0
-75 -77 0
-76 -77 0
-70 77 78 0
70 -78 0
-77 -78 0
70 -77 79 0
-70 -79 0
77 -79 0
78 79 80 0
-78 -80 0
-79 -80 0
64 -80 81 0
-64 -81 0
80 -81 0
-64 80 82 0
64 -82 0
-80 -82 0
81 82 83 0
-81 -83 0
-82 -83 0
-83 -71 84 0
83 -84 0
71 -84 0
69 84 85 0
-69 -85 0
-84 -85 0
83 71 86 0
-83 -86 0
-71 -86 0
85 86 87 0
-85 -87 0
-86 -87 0
79 76 88 0
-79 -88 0
-76 -88 0
73 -89 90 0
-73 -90 0
89 -90 0
-73 89 91 0
73 -91 0
-89 -91 0
90 91 92 0
-90 -92 0
-91 -92 0
92 4 93 0
-92 -93 0
-4 -93 0
-92 -4 94 0
92 -94 0
4 -94 0
93 94 95 0
-93 -95 0
-94 -95 0
-88 95 96 0
88 -96 0
-95 -96 0
88 -95 97 0
-88 -97 0
95 -97 0
96 97 98 0
-96 -98 0
-97 -98 0
-82 98 99 0
82 -99 0
-98 -99 0
82 -98 100 0
-82 -100 0
98 -100 0
99 100 101 0
-99 -101 0
-100 -101 0
101 89 102 0
-101 -102 0
-89 -102 0
-87 102 103 0
87 -103 0
-102 -103 0
-103 -99 104 0
103 -104 0
99 -104 0
-4 -105 106 0
4 -106 0
105 -106 0
4 105 107 0
-4 -107 0
-105 -107 0
106 107 108 0
-106 -108 0
-107 -108 0
-108 91 109 0
108 -109 0
-91 -109 0
108 -91 110 0
-108 -110 0
91 -110 0
109 110 111 0
-109 -111 0
-110 -111 0
97 94 112 0
-97 -112 0
-94 -112 0
111 112 113 0
-111 -113 0
-112 -113 0
-111 -112 114 0
111 -114 0
112 -114 0
113 114 115 0
-113 -115 0
-114 -115 0
115 105 116 0
-115 -116 0
-105 -116 0
-104 -116 117 0
104 -117 0
116 -117 0
-115 -105 118 0
115 -118 0
105 -118 0
-118 104 119 0
118 -119 0
-104 -119 0
117 119 120 0
-117 -120 0
-119 -120 0
99 89 121 0
-99 -121 0
-89 -121 0
121 100 122 0
-121 -122 0
-100 -122 0
122 116 123 0
-122 -123 0
-116 -123 0
-123 103 124 0
123 -124 0
-103 -124 0
-120 124 125 0
120 -125 0
-124 -125 0
-125 0
